benchmark_instances/dzn_benchmark_instances/benchmark_instance_7-3.dzn
% Input: sequence of points
seq_points = [|2,1
              |3,1
              |5,3
              |6,3
              |1,4
              |5,4
              |6,4
              |2,5
              |3,5
              |4,5
              |6,5
              |3,6
              |4,6
              |3,0
              |6,0
              |7,0
              |7,7
              |0,4
              |1,7
              |0,0
             |];

num_points = 20;
